52
120
84	4
83	3
82	1
81	1
79	2
77	1
76	1
73	1
69	1
68	5
67	1
66	1
65	3
64	1
63	3
62	3
59	1
58	3
57	2
55	3
54	2
53	3
51	1
49	2
48	2
47	1
46	2
44	3
41	2
40	3
39	1
38	3
36	1
35	1
34	2
33	2
31	2
29	2
28	3
27	1
26	1
25	1
24	2
22	2
21	1
20	2
19	1
17	2
15	3
14	1
13	1
12	3
